TCS_Benchmarks/redos_fix/snort4_output_distinct_258_257_1_0.smt2
(set-logic QF_S)
(declare-const x String)
(assert (str.in.re x (re.inter (re.+  (re.++  (str.to.re "\u{25}") (re.++  (str.to.re "\u{32}")  (str.to.re "\u{30}"))) )  (re.++ (re.+  (re.++  (str.to.re "\u{25}") (re.++  (str.to.re "\u{32}")  (str.to.re "\u{30}"))) ) (re.+ (re.comp  (re.union  (str.to_re "\u{0A}") (re.union  (str.to_re "\u{0D}")  (str.to.re "\u{26}")))) )) (re.+ (re.comp  (re.union  (str.to_re "\u{0A}") (re.union  (str.to_re "\u{0D}")  (str.to.re "\u{26}")))) ) )))
(check-sat)
(get-model)