TCS_Benchmarks/redos_fix/snort4_output_distinct_258_257_1_0.txt
(%20)+
((%20)+)([^\n\r&]+)
[^\n\r&]+